
  32    1
  10

   0   0  10 2 3 4 5 6 10 11 12 18 20 
   9   1   8 30 28 26 17 15 13 9 7 
   7   2   6 30 25 19 15 14 8 
  10   1   7 31 29 28 25 23 22 16 
   8   1   5 29 26 19 16 14 
  10   3   4 27 19 17 16 
  10   3   3 25 16 14 
   3   2   6 28 27 26 23 22 21 
   1   3   4 23 22 19 16 
  10   1   3 24 19 14 
   5   2   5 29 27 26 25 22 
   3   2   5 27 26 25 22 21 
   9   2   1 14 
   9   5   3 23 22 21 
  10   3   1 16 
   9   2   2 24 21 
   3   1   2 24 23 
  10   3   2 25 21 
   4   2   1 21 
   1   2   1 21 
   8   1   1 32
   3   5   1 32
   3   1   1 32
   6   1   1 32
   9   3   1 32
   5   1   1 32
   1   2   1 32
   4   2   1 32
   1   1   1 32
  10   1   1 32
   2   1   1 32
   0   0   0 
